6 48 4 10
17 17 10 8 9 13 14 9 16 13 6 1 3 14 12 8 15 7 18 3 20 8 7 13 13 18 2 12 14 1 2 20 13 7 1 7 20 4 3 11 16 9 20 5 2 5 15 15 
12.53 0.15 12.15 10.85 10.32 8.01 15.12 6.89 11.21 3.81 5.23 10.05 0.58 2.92 10.24 9.61 0.9 2.96 12.62 11.45 12.8 14.64 7.68 7.81 13.07 12.29 6.17 10.77 1.96 14.02 13.72 13.48 6.73 8.57 12.83 6.55 2.36 2.36 6.59 1.52 13.38 12.44 1.15 5.21 12.01 8.36 15.16 10.84 
2.75 3.25 15.17 13.67 2.33 4.61 14.14 7.49 6.93 12.3 6.52 14.88 8.06 3.14 10.75 2.72 12.62 7.82 3.7 14.38 4.06 10.27 14.09 15.48 9.73 11.42 2.34 6.25 1.34 4.51 9.55 3.38 9.06 9.97 1.55 14.38 13.09 1.2 0.48 4.95 14.52 10.1 6.94 8.64 12.12 13.58 7.43 2.93 
9.24 7.61 8.07 0.9 0.55 11 14.37 0.93 15.97 7.56 6.18 11.02 5.67 3.41 10.99 13.01 13.59 11.52 2.76 4.12 2.84 12.55 4.58 7.04 9.27 4.48 3.66 8.31 9.41 7.44 12.87 5.7 7.3 10.27 5.23 1.25 7.31 7.88 12.11 5.27 11.55 5.59 10.31 6.36 1.04 6.21 9.22 6.67 
6.85 15.76 0.99 1.06 0.82 6.59 10.3 9.87 4.17 7.6 6.67 2.79 8.91 14.84 6.75 11.66 4.48 0.09 11.61 2.55 11.66 7.72 3.48 10.39 5.72 9 4.48 5.03 9 0.06 8.29 12.58 12.4 3.57 4.71 15.43 1.9 7.82 11.19 15.95 9.17 1.01 4.36 6.36 4.33 15.31 2.15 6.77 
8 8 8 8 8 8 8 8 8 8 8 8 8 8 8 8 8 8 8 8 8 8 8 8 8 8 8 8 8 8 8 8 8 8 8 8 8 8 8 8 8 8 8 8 8 8 8 8 
5.09 2.44 11.14 9.59 13.5 15.19 12.98 6.41 11.81 13.41 2.06 0.03 15.03 8.13 2.04 13.51 10.66 13.33 1.84 4.45 12.58 6.56 14.88 3.46 3.19 7.09 14.28 2.09 2.4 3.95 1.35 9.56 2.1 1.44 0.05 10.5 14.37 2.48 6.4 12.28 14.72 6.81 5.13 14.78 10.39 3.49 12.04 5.95 
1 1 1 1 1 1 1 1 1 1 1 1 1 1 1 1 1 1 1 1 1 1 1 1 1 1 1 1 1 1 1 1 1 1 1 1 1 1 1 1 1 1 1 1 1 1 1 1 
1 1 1 1 1 1 1 1 1 1 1 1 1 1 1 1 1 1 1 1 1 1 1 1 1 1 1 1 1 1 1 1 1 1 1 1 1 1 1 1 1 1 1 1 1 1 1 1 
1 1 1 1 1 1 1 1 1 1 1 1 1 1 1 1 1 1 1 1 1 1 1 1 1 1 1 1 1 1 1 1 1 1 1 1 1 1 1 1 1 1 1 1 1 1 1 1 
1 1 1 1 1 1 1 1 1 1 1 1 1 1 1 1 1 1 1 1 1 1 1 1 1 1 1 1 1 1 1 1 1 1 1 1 1 1 1 1 1 1 1 1 1 1 1 1 
1 1 1 1 1 1 1 1 1 1 1 1 1 1 1 1 1 1 1 1 1 1 1 1 1 1 1 1 1 1 1 1 1 1 1 1 1 1 1 1 1 1 1 1 1 1 1 1 
1 1 1 1 1 1 1 1 1 1 1 1 1 1 1 1 1 1 1 1 1 1 1 1 1 1 1 1 1 1 1 1 1 1 1 1 1 1 1 1 1 1 1 1 1 1 1 1 
0.01 0.01 0.01 0.01 0.01 0.01 0.01 0.01 0.01 0.01 0.01 0.01 0.01 0.01 0.01 0.01 0.01 0.01 0.01 0.01 0.01 0.01 0.01 0.01 0.01 0.01 0.01 0.01 0.01 0.01 0.01 0.01 0.01 0.01 0.01 0.01 0.01 0.01 0.01 0.01 0.01 0.01 0.01 0.01 0.01 0.01 0.01 0.01 
0.02 0.02 0.02 0.02 0.02 0.02 0.02 0.02 0.02 0.02 0.02 0.02 0.02 0.02 0.02 0.02 0.02 0.02 0.02 0.02 0.02 0.02 0.02 0.02 0.02 0.02 0.02 0.02 0.02 0.02 0.02 0.02 0.02 0.02 0.02 0.02 0.02 0.02 0.02 0.02 0.02 0.02 0.02 0.02 0.02 0.02 0.02 0.02 
0.03 0.03 0.03 0.03 0.03 0.03 0.03 0.03 0.03 0.03 0.03 0.03 0.03 0.03 0.03 0.03 0.03 0.03 0.03 0.03 0.03 0.03 0.03 0.03 0.03 0.03 0.03 0.03 0.03 0.03 0.03 0.03 0.03 0.03 0.03 0.03 0.03 0.03 0.03 0.03 0.03 0.03 0.03 0.03 0.03 0.03 0.03 0.03 
0.04 0.04 0.04 0.04 0.04 0.04 0.04 0.04 0.04 0.04 0.04 0.04 0.04 0.04 0.04 0.04 0.04 0.04 0.04 0.04 0.04 0.04 0.04 0.04 0.04 0.04 0.04 0.04 0.04 0.04 0.04 0.04 0.04 0.04 0.04 0.04 0.04 0.04 0.04 0.04 0.04 0.04 0.04 0.04 0.04 0.04 0.04 0.04 
0.05 0.05 0.05 0.05 0.05 0.05 0.05 0.05 0.05 0.05 0.05 0.05 0.05 0.05 0.05 0.05 0.05 0.05 0.05 0.05 0.05 0.05 0.05 0.05 0.05 0.05 0.05 0.05 0.05 0.05 0.05 0.05 0.05 0.05 0.05 0.05 0.05 0.05 0.05 0.05 0.05 0.05 0.05 0.05 0.05 0.05 0.05 0.05 
1 1 1 1 1 1 1 1 1 1 1 1 1 1 1 1 1 1 1 1 1 1 1 1 1 1 1 1 1 1 1 1 1 1 1 1 1 1 1 1 1 1 1 1 1 1 1 1 
